p cnf 806 1095
a 1 2 3 4 5 6 7 8 9 10 11 12 13 14 15 16 17 18 19 20 21 22 23 24 25 26 27 28 29 30 31 32 33 34 35 36 37 38 39 40 41 42 43 44 45 46 47 48 49 50 51 52 53 54 55 56 57 58 59 60 61 62 63 64 65 66 67 68 69 70 71 72 73 74 75 76 77 78 79 80 81 82 83 84 85 86 87 88 89 90 91 92 93 94 95 96 97 98 99 100 101 102 103 104 105 106 107 108 109 110 111 112 113 114 115 116 117 118 119 120 121 122 123 124 125 126 127 128 129 130 131 132 133 134 135 136 137 138 139 140 141 142 143 144 145 146 147 148 149 150 151 152 153 154 155 156 157 158 159 160 161 162 163 164 165 166 167 168 169 170 171 172 173 174 175 176 177 178 179 180 181 182 183 184 185 0
d 186 48 118 0
d 187 75 151 0
d 188 51 115 0
d 189 40 150 0
e 191 193 196 200 201 204 208 209 212 216 217 220 224 225 228 232 233 236 240 241 244 248 249 252 256 257 260 264 265 268 272 273 276 280 281 284 288 289 292 296 297 300 304 305 308 312 313 316 320 321 324 328 329 332 336 337 340 344 345 348 352 353 356 360 361 364 368 369 372 376 377 380 384 385 388 392 393 396 400 401 404 408 409 412 416 417 420 424 425 428 432 433 436 439 442 446 447 450 454 455 458 462 463 466 470 471 474 478 479 482 486 487 490 494 495 498 502 503 507 508 511 516 519 523 524 528 529 532 537 540 544 545 548 552 553 556 560 561 564 568 569 573 576 581 584 588 589 592 596 597 600 604 605 608 612 613 616 620 621 624 628 629 632 636 637 640 644 645 648 652 653 656 660 661 664 668 669 800 803 805 0
-191 -193 -196 -201 -204 -209 -212 -217 -220 -225 -228 -233 -236 -241 -244 -249 -252 -257 -260 -265 -268 -273 -276 -281 -284 -289 -292 -297 -300 -305 -308 -313 -316 -321 -324 -329 -332 -337 -340 -345 -348 -353 -356 -361 -364 -369 -372 -377 -380 -385 -388 -393 -396 -401 -404 -409 -412 -417 -420 -425 -428 -433 -436 -439 -442 -447 -450 -455 -458 -463 -466 -471 -474 -479 -482 -487 -490 -495 -498 -503 -508 -511 -516 -519 -524 -529 -532 -537 -540 -545 -548 -553 -556 -561 -564 -569 -573 -576 -581 -584 -589 -592 -597 -600 -605 -608 -613 -616 -621 -624 -629 -632 -637 -640 -645 -648 -653 -656 -661 -664 -669 805 0
-21 -98 138 436 0
21 -98 -138 436 0
-93 -102 140 439 0
-93 102 -140 439 0
-44 -99 139 442 0
44 -99 -139 442 0
85 200 201 0
-85 -200 201 0
-21 -102 138 446 0
90 -98 -138 200 0
89 138 -200 0
90 138 -200 0
21 98 -446 0
89 98 -200 0
-89 -90 98 200 0
-57 -96 143 450 0
57 -96 -143 450 0
87 208 209 0
-87 -208 209 0
-44 -63 139 454 0
91 -99 -139 208 0
85 139 -208 0
91 139 -208 0
44 99 -454 0
85 99 -208 0
-85 -91 99 208 0
-64 -97 144 458 0
64 -97 -144 458 0
82 216 217 0
-82 -216 217 0
-57 -65 143 462 0
87 -96 -143 216 0
86 143 -216 0
87 143 -216 0
57 96 -462 0
86 96 -216 0
-86 -87 96 216 0
-100 -107 141 466 0
-100 107 -141 466 0
37 224 225 0
-37 -224 225 0
-64 -106 144 470 0
88 -97 -144 224 0
82 144 -224 0
88 144 -224 0
64 97 -470 0
82 97 -224 0
-82 -88 97 224 0
-101 -109 142 474 0
-101 109 -142 474 0
35 232 233 0
-35 -232 233 0
-107 -108 141 478 0
83 -100 -141 232 0
37 141 -232 0
83 141 -232 0
100 107 -478 0
37 100 -232 0
-37 -83 100 232 0
-111 -121 135 482 0
111 -121 -135 482 0
33 240 241 0
-33 -240 241 0
-109 -110 142 486 0
38 -101 -142 240 0
35 142 -240 0
38 142 -240 0
101 109 -486 0
35 101 -240 0
-35 -38 101 240 0
-113 -120 136 490 0
113 -120 -136 490 0
31 248 249 0
-31 -248 249 0
-111 -112 135 494 0
36 -121 -135 248 0
33 135 -248 0
36 135 -248 0
111 121 -494 0
33 121 -248 0
-33 -36 121 248 0
47 -104 -119 498 0
-47 104 -119 498 0
29 256 257 0
-29 -256 257 0
-103 -113 136 502 0
34 -120 -136 256 0
31 136 -256 0
34 136 -256 0
103 120 -502 0
31 120 -256 0
-31 -34 120 256 0
113 136 -502 0
-30 -48 118 260 0
-30 48 -118 260 0
103 136 -502 0
30 48 118 260 0
30 -48 -118 260 0
164 264 265 0
-164 -264 265 0
-7 -104 119 507 0
32 -47 -119 264 0
29 119 -264 0
32 119 -264 0
7 47 -507 0
29 47 -264 0
-29 -32 47 264 0
-9 49 -117 511 0
9 -49 -117 511 0
25 169 -803 0
162 272 273 0
-162 -272 273 0
-6 -8 48 -186 516 0
-48 -118 164 272 0
30 118 -272 0
118 164 -272 0
6 8 48 516 0
30 48 -272 0
-30 48 -164 272 0
-6 -8 118 -186 516 0
-11 50 -116 519 0
11 -50 -116 519 0
160 280 281 0
-160 -280 281 0
-8 -9 117 523 0
-49 -117 163 280 0
117 162 -280 0
117 163 -280 0
8 49 -523 0
49 162 -280 0
49 -162 -163 280 0
9 117 -523 0
-51 115 -159 284 0
51 -115 -159 284 0
8 117 -523 0
51 115 159 284 0
-51 -115 159 284 0
158 288 289 0
-158 -288 289 0
-10 -11 116 528 0
-50 -116 161 288 0
116 160 -288 0
116 161 -288 0
10 50 -528 0
50 160 -288 0
50 -160 -161 288 0
-12 52 -114 532 0
12 -52 -114 532 0
171 296 297 0
-171 -296 297 0
-13 -15 51 -188 537 0
-51 -115 159 296 0
115 158 -296 0
115 159 -296 0
13 15 51 537 0
51 158 -296 0
51 -158 -159 296 0
-13 -15 115 -188 537 0
-14 53 -123 540 0
14 -53 -123 540 0
180 304 305 0
-180 -304 305 0
-12 -15 114 544 0
-52 -114 171 304 0
114 157 -304 0
114 171 -304 0
12 52 -544 0
52 157 -304 0
52 -157 -171 304 0
-46 54 -122 548 0
46 -54 -122 548 0
182 312 313 0
-182 -312 313 0
-14 -45 123 552 0
-53 -123 180 312 0
123 170 -312 0
123 180 -312 0
14 53 -552 0
53 170 -312 0
53 -170 -180 312 0
-5 39 -149 556 0
5 -39 -149 556 0
176 320 321 0
-176 -320 321 0
-43 -46 122 560 0
-54 -122 182 320 0
122 181 -320 0
122 182 -320 0
43 54 -560 0
54 181 -320 0
54 -181 -182 320 0
40 -42 -150 564 0
-40 42 -150 564 0
178 328 329 0
-178 -328 329 0
-5 -41 149 568 0
-39 -149 183 328 0
149 176 -328 0
149 183 -328 0
5 39 -568 0
39 176 -328 0
39 -176 -183 328 0
41 149 -568 0
-75 151 -179 332 0
75 -151 -179 332 0
5 149 -568 0
75 151 179 332 0
-75 -151 179 332 0
184 336 337 0
-184 -336 337 0
43 122 -560 0
-40 -150 178 336 0
150 177 -336 0
150 178 -336 0
-40 -150 177 336 0
40 178 -336 0
40 177 -336 0
40 -177 -178 336 0
150 -177 -178 336 0
74 -105 -152 576 0
-74 105 -152 576 0
131 344 345 0
-131 -344 345 0
-60 75 -175 -187 581 0
-75 -151 184 344 0
151 179 -344 0
151 184 -344 0
60 75 175 581 0
75 179 -344 0
75 -179 -184 344 0
-60 151 -175 -187 581 0
77 -145 -172 584 0
-77 -145 172 584 0
133 352 353 0
-133 -352 353 0
-105 152 -175 588 0
-74 -152 185 352 0
131 152 -352 0
152 185 -352 0
74 105 -588 0
74 131 -352 0
74 -131 -185 352 0
-3 76 -146 592 0
3 -76 -146 592 0
127 360 361 0
-127 -360 361 0
-4 145 -172 596 0
-77 133 -145 360 0
130 145 -360 0
133 145 -360 0
4 77 -596 0
77 130 -360 0
77 -130 -133 360 0
-69 71 -147 600 0
69 -71 -147 600 0
129 368 369 0
-129 -368 369 0
-3 -62 146 604 0
-76 132 -146 368 0
127 146 -368 0
132 146 -368 0
3 76 -604 0
76 127 -368 0
76 -127 -132 368 0
-16 70 -148 608 0
16 -70 -148 608 0
125 376 377 0
-125 -376 377 0
-68 -69 147 612 0
-71 129 -147 376 0
126 147 -376 0
129 147 -376 0
68 71 -612 0
71 126 -376 0
71 -126 -129 376 0
-59 73 -155 616 0
59 -73 -155 616 0
20 384 385 0
-20 -384 385 0
-16 148 -174 620 0
-70 128 -148 384 0
125 148 -384 0
128 148 -384 0
16 70 -620 0
70 125 -384 0
70 -125 -128 384 0
72 -156 -173 624 0
-72 -156 173 624 0
17 392 393 0
-17 -392 393 0
-56 -59 155 628 0
-73 124 -155 392 0
20 155 -392 0
124 155 -392 0
56 73 -628 0
20 73 -392 0
-20 73 -124 392 0
-61 67 -166 632 0
61 -67 -166 632 0
28 400 401 0
-28 -400 401 0
-19 156 -173 636 0
22 -72 -156 400 0
17 156 -400 0
22 156 -400 0
19 72 -636 0
17 72 -400 0
-17 -22 72 400 0
-1 66 -165 640 0
1 -66 -165 640 0
24 408 409 0
-24 -408 409 0
-2 -61 166 644 0
28 -67 -166 408 0
18 166 -408 0
28 166 -408 0
2 67 -644 0
18 67 -408 0
-18 -28 67 408 0
-78 94 -168 648 0
78 -94 -168 648 0
153 416 417 0
-153 -416 417 0
-1 -55 165 652 0
-66 81 -165 416 0
24 165 -416 0
81 165 -416 0
1 66 -652 0
24 66 -416 0
-24 66 -81 416 0
-80 95 -167 656 0
80 -95 -167 656 0
27 424 425 0
-27 -424 425 0
-78 -79 168 660 0
-94 153 -168 424 0
26 168 -424 0
153 168 -424 0
78 94 -660 0
26 94 -424 0
-26 94 -153 424 0
92 -137 -169 664 0
-92 137 -169 664 0
23 432 433 0
-23 -432 433 0
-80 -84 167 668 0
-95 154 -167 432 0
27 167 -432 0
154 167 -432 0
80 95 -668 0
27 95 -432 0
-27 95 -154 432 0
-89 -98 138 191 0
89 -98 -138 191 0
-89 98 -138 191 0
-21 98 -138 436 0
89 98 138 191 0
21 98 138 436 0
-90 -93 140 193 0
90 -93 -140 193 0
-90 93 -140 193 0
93 -102 -140 439 0
90 93 140 193 0
93 102 140 439 0
-91 -99 139 196 0
91 -99 -139 196 0
-91 99 -139 196 0
-44 99 -139 442 0
91 99 139 196 0
44 99 139 442 0
63 446 447 0
-63 -446 447 0
89 -98 -138 200 0
80 167 -668 0
98 102 -446 0
-89 -90 138 200 0
-21 98 -102 446 0
90 98 -200 0
21 -98 -138 446 0
-98 102 -138 446 0
-86 -96 143 204 0
86 -96 -143 204 0
-86 96 -143 204 0
-57 96 -143 450 0
86 96 143 204 0
57 96 143 450 0
65 454 455 0
-65 -454 455 0
85 -99 -139 208 0
84 167 -668 0
63 99 -454 0
-85 -91 139 208 0
-44 -63 99 454 0
91 99 -208 0
44 -99 -139 454 0
63 -99 -139 454 0
-88 -97 144 212 0
88 -97 -144 212 0
-88 97 -144 212 0
-64 97 -144 458 0
88 97 144 212 0
64 97 144 458 0
106 462 463 0
-106 -462 463 0
86 -96 -143 216 0
78 168 -660 0
65 96 -462 0
-86 -87 143 216 0
-57 -65 96 462 0
87 96 -216 0
57 -96 -143 462 0
65 -96 -143 462 0
-83 -100 141 220 0
83 -100 -141 220 0
-83 100 -141 220 0
100 -107 -141 466 0
83 100 141 220 0
100 107 141 466 0
108 470 471 0
-108 -470 471 0
82 -97 -144 224 0
79 168 -660 0
97 106 -470 0
-82 -88 144 224 0
-64 97 -106 470 0
88 97 -224 0
64 -97 -144 470 0
-97 106 -144 470 0
-38 -101 142 228 0
38 -101 -142 228 0
-38 101 -142 228 0
101 -109 -142 474 0
38 101 142 228 0
101 109 142 474 0
110 478 479 0
-110 -478 479 0
37 -100 -141 232 0
1 165 -652 0
100 108 -478 0
-37 -83 141 232 0
100 -107 -108 478 0
83 100 -232 0
-100 107 -141 478 0
-100 108 -141 478 0
-36 -121 135 236 0
36 -121 -135 236 0
-36 121 -135 236 0
-111 121 -135 482 0
36 121 135 236 0
111 121 135 482 0
112 486 487 0
-112 -486 487 0
35 -101 -142 240 0
55 165 -652 0
101 110 -486 0
-35 -38 142 240 0
101 -109 -110 486 0
38 101 -240 0
-101 109 -142 486 0
-101 110 -142 486 0
-34 -120 136 244 0
34 -120 -136 244 0
-34 120 -136 244 0
-113 120 -136 490 0
34 120 136 244 0
113 120 136 490 0
103 494 495 0
-103 -494 495 0
33 -121 -135 248 0
33 36 112 -805 0
112 121 -494 0
-111 -112 121 494 0
-33 -36 111 -805 0
111 -121 -135 494 0
33 -36 -111 -112 -805 0
-32 47 -119 252 0
32 -47 -119 252 0
-32 -47 119 252 0
-47 -104 119 498 0
32 47 119 252 0
47 104 119 498 0
7 502 503 0
-7 -502 503 0
31 -120 -136 256 0
-33 -36 112 -805 0
113 120 -502 0
-31 -34 136 256 0
-103 -113 120 502 0
34 120 -256 0
103 -120 -136 502 0
113 -120 -136 502 0
6 507 508 0
-6 -507 508 0
29 -47 -119 264 0
2 166 -644 0
47 104 -507 0
-29 -32 119 264 0
-7 47 -104 507 0
32 47 -264 0
7 -47 -119 507 0
-47 104 -119 507 0
49 -117 -163 268 0
-49 -117 163 268 0
-49 117 -163 268 0
-9 -49 117 511 0
49 117 163 268 0
9 49 117 511 0
-8 -48 -118 516 0
30 -48 -118 272 0
61 166 -644 0
8 48 186 516 0
-30 118 -164 272 0
48 164 -272 0
50 -116 -161 276 0
-50 -116 161 276 0
-50 116 -161 276 0
-11 -50 116 519 0
50 116 161 276 0
11 50 116 519 0
10 523 524 0
-10 -523 524 0
-49 -117 162 280 0
19 156 -636 0
9 49 -523 0
117 -162 -163 280 0
-8 -9 49 523 0
49 163 -280 0
8 -49 -117 523 0
9 -49 -117 523 0
13 528 529 0
-13 -528 529 0
-50 -116 160 288 0
156 173 -636 0
11 50 -528 0
116 -160 -161 288 0
-10 -11 50 528 0
50 161 -288 0
10 -50 -116 528 0
11 -50 -116 528 0
52 -114 -157 292 0
-52 -114 157 292 0
-52 114 -157 292 0
-12 -52 114 532 0
52 114 157 292 0
12 52 114 532 0
-15 -51 -115 537 0
-51 -115 158 296 0
56 155 -628 0
15 51 188 537 0
115 -158 -159 296 0
51 159 -296 0
53 -123 -170 300 0
-53 -123 170 300 0
-53 123 -170 300 0
-14 -53 123 540 0
53 123 170 300 0
14 53 123 540 0
45 544 545 0
-45 -544 545 0
-52 -114 157 304 0
59 155 -628 0
15 52 -544 0
114 -157 -171 304 0
-12 -15 52 544 0
52 171 -304 0
12 -52 -114 544 0
15 -52 -114 544 0
54 -122 -181 308 0
-54 -122 181 308 0
-54 122 -181 308 0
-46 -54 122 548 0
54 122 181 308 0
46 54 122 548 0
43 552 553 0
-43 -552 553 0
-53 -123 170 312 0
16 148 -620 0
45 53 -552 0
123 -170 -180 312 0
-14 -45 53 552 0
53 180 -312 0
14 -53 -123 552 0
45 -53 -123 552 0
39 -149 -183 316 0
-39 -149 183 316 0
-39 149 -183 316 0
-5 -39 149 556 0
39 149 183 316 0
5 39 149 556 0
41 560 561 0
-41 -560 561 0
-54 -122 181 320 0
148 174 -620 0
46 54 -560 0
122 -181 -182 320 0
-43 -46 54 560 0
54 182 -320 0
43 -54 -122 560 0
46 -54 -122 560 0
40 -150 -177 324 0
-40 -150 177 324 0
-40 150 -177 324 0
-40 -42 150 564 0
40 150 177 324 0
40 42 150 564 0
58 568 569 0
-58 -568 569 0
-39 -149 176 328 0
68 147 -612 0
39 41 -568 0
149 -176 -183 328 0
-5 39 -41 568 0
39 183 -328 0
5 -39 -149 568 0
-39 41 -149 568 0
-42 -58 -60 573 0
42 60 189 573 0
69 147 -612 0
58 -60 -189 573 0
42 -60 -189 573 0
58 60 189 573 0
74 -152 -185 340 0
-74 -152 185 340 0
-74 152 -185 340 0
-74 -105 152 576 0
74 152 185 340 0
74 105 152 576 0
-75 -151 -175 581 0
-75 -151 179 344 0
3 146 -604 0
75 175 187 581 0
151 -179 -184 344 0
75 184 -344 0
77 -130 -145 348 0
-77 130 -145 348 0
-77 -130 145 348 0
-77 145 -172 584 0
77 130 145 348 0
77 145 172 584 0
4 588 589 0
-4 -588 589 0
-74 131 -152 352 0
62 146 -604 0
74 175 -588 0
-131 152 -185 352 0
74 -105 -175 588 0
74 185 -352 0
-74 105 -152 588 0
-74 -152 175 588 0
76 -132 -146 356 0
-76 132 -146 356 0
-76 -132 146 356 0
-3 -76 146 592 0
76 132 146 356 0
3 76 146 592 0
62 596 597 0
-62 -596 597 0
-77 130 -145 360 0
4 145 -596 0
77 172 -596 0
-130 -133 145 360 0
-4 77 -172 596 0
77 133 -360 0
4 -77 -145 596 0
-77 -145 172 596 0
71 -126 -147 364 0
-71 126 -147 364 0
-71 -126 147 364 0
-69 -71 147 600 0
71 126 147 364 0
69 71 147 600 0
68 604 605 0
-68 -604 605 0
-76 127 -146 368 0
145 172 -596 0
62 76 -604 0
-127 -132 146 368 0
-3 -62 76 604 0
76 132 -368 0
3 -76 -146 604 0
62 -76 -146 604 0
70 -128 -148 372 0
-70 128 -148 372 0
-70 -128 148 372 0
-16 -70 148 608 0
70 128 148 372 0
16 70 148 608 0
174 612 613 0
-174 -612 613 0
-71 126 -147 376 0
105 152 -588 0
69 71 -612 0
-126 -129 147 376 0
-68 -69 71 612 0
71 129 -376 0
68 -71 -147 612 0
69 -71 -147 612 0
73 -124 -155 380 0
-73 124 -155 380 0
-73 -124 155 380 0
-59 -73 155 616 0
73 124 155 380 0
59 73 155 616 0
56 620 621 0
-56 -620 621 0
-70 125 -148 384 0
152 175 -588 0
70 174 -620 0
-125 -128 148 384 0
-16 70 -174 620 0
70 128 -384 0
16 -70 -148 620 0
-70 -148 174 620 0
-22 72 -156 388 0
22 -72 -156 388 0
-22 -72 156 388 0
-72 156 -173 624 0
22 72 156 388 0
72 156 173 624 0
19 628 629 0
-19 -628 629 0
20 -73 -155 392 0
60 151 175 581 0
59 73 -628 0
-20 -124 155 392 0
-56 -59 73 628 0
73 124 -392 0
56 -73 -155 628 0
59 -73 -155 628 0
-18 67 -166 396 0
18 -67 -166 396 0
-18 -67 166 396 0
-61 -67 166 632 0
18 67 166 396 0
61 67 166 632 0
2 636 637 0
-2 -636 637 0
17 -72 -156 400 0
151 175 187 581 0
72 173 -636 0
-17 -22 156 400 0
-19 72 -173 636 0
22 72 -400 0
19 -72 -156 636 0
-72 -156 173 636 0
66 -81 -165 404 0
-66 81 -165 404 0
-66 -81 165 404 0
-1 -66 165 640 0
66 81 165 404 0
1 66 165 640 0
55 644 645 0
-55 -644 645 0
18 -67 -166 408 0
46 122 -560 0
61 67 -644 0
-18 -28 166 408 0
-2 -61 67 644 0
28 67 -408 0
2 -67 -166 644 0
61 -67 -166 644 0
-26 94 -168 412 0
26 -94 -168 412 0
-26 -94 168 412 0
-78 -94 168 648 0
26 94 168 412 0
78 94 168 648 0
79 652 653 0
-79 -652 653 0
24 -66 -165 416 0
14 123 -552 0
55 66 -652 0
-24 -81 165 416 0
-1 -55 66 652 0
66 81 -416 0
1 -66 -165 652 0
55 -66 -165 652 0
95 -154 -167 420 0
-95 154 -167 420 0
-95 -154 167 420 0
-80 -95 167 656 0
95 154 167 420 0
80 95 167 656 0
84 660 661 0
-84 -660 661 0
26 -94 -168 424 0
45 123 -552 0
79 94 -660 0
-26 -153 168 424 0
-78 -79 94 660 0
94 153 -424 0
78 -94 -168 660 0
79 -94 -168 660 0
-25 92 -169 428 0
25 -92 -169 428 0
-25 -92 169 428 0
-92 -137 169 664 0
25 92 169 428 0
92 137 169 664 0
134 668 669 0
-134 -668 669 0
27 -95 -167 432 0
12 114 -544 0
84 95 -668 0
-27 -154 167 432 0
-80 -84 95 668 0
95 154 -432 0
80 -95 -167 668 0
84 -95 -167 668 0
15 114 -544 0
13 15 115 537 0
15 115 188 537 0
11 116 -528 0
-21 -89 -90 102 -805 0
21 -89 90 102 -805 0
-21 89 -90 -102 -805 0
21 89 -90 102 -805 0
-21 -89 90 -102 -805 0
-21 89 90 102 -805 0
21 -89 -90 -102 -805 0
21 89 90 -102 -805 0
10 116 -528 0
8 118 186 516 0
-44 63 -85 -91 -805 0
44 63 85 -91 -805 0
-44 -63 -85 91 -805 0
44 63 -85 91 -805 0
-44 -63 85 -91 -805 0
-44 63 85 91 -805 0
44 -63 -85 -91 -805 0
44 -63 85 91 -805 0
6 8 118 516 0
104 119 -507 0
-57 65 -86 -87 -805 0
57 65 -86 87 -805 0
-57 -65 86 -87 -805 0
57 65 86 -87 -805 0
-57 -65 -86 87 -805 0
-57 65 86 87 -805 0
57 -65 -86 -87 -805 0
57 -65 86 87 -805 0
7 119 -507 0
112 135 -494 0
-64 -82 -88 106 -805 0
64 82 -88 106 -805 0
-64 -82 88 -106 -805 0
64 -82 88 106 -805 0
-64 82 -88 -106 -805 0
-64 82 88 106 -805 0
64 -82 -88 -106 -805 0
64 82 88 -106 -805 0
111 135 -494 0
110 142 -486 0
-37 -83 -107 108 -805 0
37 -83 107 108 -805 0
-37 83 -107 -108 -805 0
-37 83 107 108 -805 0
37 -83 -107 -108 -805 0
37 83 -107 108 -805 0
-37 -83 107 -108 -805 0
37 83 107 -108 -805 0
109 142 -486 0
108 141 -478 0
-35 -38 -109 110 -805 0
35 -38 109 110 -805 0
-35 38 -109 -110 -805 0
-35 38 109 110 -805 0
35 -38 -109 -110 -805 0
35 38 -109 110 -805 0
-35 -38 109 -110 -805 0
35 38 109 -110 -805 0
107 141 -478 0
106 144 -470 0
-33 36 -111 -112 -805 0
33 36 111 -805 0
-33 -36 135 248 0
36 121 -248 0
112 -121 -135 494 0
64 144 -470 0
65 143 -462 0
-31 -34 103 -113 -805 0
31 -34 103 113 -805 0
-31 34 -103 -113 -805 0
-31 34 103 113 -805 0
31 -34 -103 -113 -805 0
31 34 103 -113 -805 0
-31 -34 -103 113 -805 0
31 34 -103 113 -805 0
57 143 -462 0
63 139 -454 0
7 -29 -32 -104 -805 0
7 29 -32 104 -805 0
-7 -29 32 -104 -805 0
7 -29 32 104 -805 0
-7 29 -32 -104 -805 0
7 29 32 -104 -805 0
-7 -29 -32 104 -805 0
-7 29 32 104 -805 0
44 139 -454 0
102 138 -446 0
6 -30 -164 -186 -805 0
6 -30 164 186 -805 0
-6 30 -164 -186 -805 0
6 30 -164 186 -805 0
-6 -30 164 -186 -805 0
6 30 164 -186 -805 0
-6 -30 -164 186 -805 0
-6 30 164 186 -805 0
21 138 -446 0
8 -9 -162 -163 -805 0
8 9 162 -163 -805 0
-8 -9 -162 163 -805 0
8 9 -162 163 -805 0
-8 -9 162 -163 -805 0
8 -9 162 163 -805 0
-8 9 -162 -163 -805 0
-8 9 162 163 -805 0
10 -11 -160 -161 -805 0
10 11 160 -161 -805 0
-10 -11 -160 161 -805 0
10 11 -160 161 -805 0
-10 -11 160 -161 -805 0
10 -11 160 161 -805 0
-10 11 -160 -161 -805 0
-10 11 160 161 -805 0
13 -158 -159 -188 -805 0
13 158 -159 188 -805 0
-13 -158 159 -188 -805 0
13 -158 159 188 -805 0
-13 158 -159 -188 -805 0
13 158 159 -188 -805 0
-13 -158 -159 188 -805 0
-13 158 159 188 -805 0
-12 15 -157 -171 -805 0
12 15 -157 171 -805 0
-12 -15 157 -171 -805 0
12 15 157 -171 -805 0
-12 -15 -157 171 -805 0
-12 15 157 171 -805 0
12 -15 -157 -171 -805 0
12 -15 157 171 -805 0
-14 45 -170 -180 -805 0
14 45 -170 180 -805 0
-14 -45 170 -180 -805 0
14 45 170 -180 -805 0
-14 -45 -170 180 -805 0
-14 45 170 180 -805 0
14 -45 -170 -180 -805 0
14 -45 170 180 -805 0
43 -46 -181 -182 -805 0
43 46 -181 182 -805 0
-43 -46 181 -182 -805 0
43 46 181 -182 -805 0
-43 -46 -181 182 -805 0
43 -46 181 182 -805 0
-43 46 -181 -182 -805 0
-43 46 181 182 -805 0
-5 41 -176 -183 -805 0
5 41 176 -183 -805 0
-5 -41 -176 183 -805 0
5 41 -176 183 -805 0
-5 -41 176 -183 -805 0
-5 41 176 183 -805 0
5 -41 -176 -183 -805 0
5 -41 176 183 -805 0
-42 58 -177 -178 -805 0
42 58 -177 178 -805 0
-42 -58 177 -178 -805 0
42 58 177 -178 -805 0
-42 -58 -177 178 -805 0
-42 58 177 178 -805 0
42 -58 -177 -178 -805 0
42 -58 177 178 -805 0
60 -179 -184 -187 -805 0
60 -179 184 187 -805 0
-60 179 -184 -187 -805 0
60 179 -184 187 -805 0
-60 -179 184 -187 -805 0
60 179 184 -187 -805 0
-60 -179 -184 187 -805 0
-60 179 184 187 -805 0
-105 -131 175 -185 -805 0
105 131 175 -185 -805 0
-105 -131 -175 185 -805 0
105 -131 175 185 -805 0
-105 131 -175 -185 -805 0
-105 131 175 185 -805 0
105 -131 -175 -185 -805 0
105 131 -175 185 -805 0
4 -130 -133 -172 -805 0
4 -130 133 172 -805 0
-4 130 -133 -172 -805 0
4 130 -133 172 -805 0
-4 -130 133 -172 -805 0
4 130 133 -172 -805 0
-4 -130 -133 172 -805 0
-4 130 133 172 -805 0
-3 62 -127 -132 -805 0
3 62 127 -132 -805 0
-3 -62 -127 132 -805 0
3 62 -127 132 -805 0
-3 -62 127 -132 -805 0
-3 62 127 132 -805 0
3 -62 -127 -132 -805 0
3 -62 127 132 -805 0
68 -69 -126 -129 -805 0
68 69 -126 129 -805 0
-68 -69 126 -129 -805 0
68 69 126 -129 -805 0
-68 -69 -126 129 -805 0
68 -69 126 129 -805 0
-68 69 -126 -129 -805 0
-68 69 126 129 -805 0
-16 -125 -128 174 -805 0
16 125 -128 174 -805 0
-16 -125 128 -174 -805 0
16 -125 128 174 -805 0
-16 125 -128 -174 -805 0
-16 125 128 174 -805 0
16 -125 -128 -174 -805 0
16 125 128 -174 -805 0
-20 56 -59 -124 -805 0
20 56 59 -124 -805 0
-20 -56 -59 124 -805 0
-20 56 59 124 -805 0
20 -56 -59 -124 -805 0
20 56 -59 124 -805 0
-20 -56 59 -124 -805 0
20 -56 59 124 -805 0
-17 19 -22 -173 -805 0
17 19 -22 173 -805 0
-17 -19 22 -173 -805 0
-17 19 22 173 -805 0
17 -19 -22 -173 -805 0
17 19 22 -173 -805 0
-17 -19 -22 173 -805 0
17 -19 22 173 -805 0
2 -18 -28 -61 -805 0
2 -18 28 61 -805 0
-2 18 -28 -61 -805 0
2 18 -28 61 -805 0
-2 -18 28 -61 -805 0
2 18 28 -61 -805 0
-2 -18 -28 61 -805 0
-2 18 28 61 -805 0
-1 -24 55 -81 -805 0
1 24 55 -81 -805 0
-1 -24 -55 81 -805 0
1 -24 55 81 -805 0
-1 24 -55 -81 -805 0
-1 24 55 81 -805 0
1 -24 -55 -81 -805 0
1 24 -55 81 -805 0
-26 -78 79 -153 -805 0
-26 78 79 153 -805 0
26 -78 -79 -153 -805 0
26 78 79 -153 -805 0
-26 -78 -79 153 -805 0
26 -78 79 153 -805 0
-26 78 -79 -153 -805 0
26 78 -79 153 -805 0
-27 -80 84 -154 -805 0
27 80 84 -154 -805 0
-27 -80 -84 154 -805 0
-27 80 84 154 -805 0
27 -80 -84 -154 -805 0
27 -80 84 154 -805 0
-27 80 -84 -154 -805 0
27 80 -84 154 -805 0
-23 -25 134 -137 -805 0
23 -25 134 137 -805 0
-23 25 -134 -137 -805 0
-23 25 134 137 -805 0
23 -25 -134 -137 -805 0
23 25 134 -137 -805 0
-23 -25 -134 137 -805 0
23 25 -134 137 -805 0
-800 803 -805 0
800 -803 -805 0
-23 -25 169 803 0
92 134 -800 0
-134 -137 169 800 0
134 169 -800 0
23 169 -803 0
25 -92 -169 803 0
25 92 -803 0
-23 -25 92 803 0
92 -134 -137 800 0
137 169 -800 0
23 -92 -169 803 0
-92 134 -169 800 0
92 137 -800 0
-92 137 -169 800 0
23 92 -803 0
